Minimize
  obj: x0 + x1 + x2 + x3 + x4 + x5 + x6 + x7

Subject To
  c0: x0 + x2 + x3 + x4 + x5 + x7 = 58
  c1: x0 + x2 + x7 = 26
  c2: x0 + x1 + x3 = 16
  c3: x3 + x4 + x6 + x7 = 52
  c4: x0 + x2 + x3 + x4 = 24
  c5: x3 + x5 + x7 = 45
  c6: x2 + x3 + x4 + x6 + x7 = 55
  c7: x0 + x1 + x2 + x3 + x5 = 33
  c8: x0 + x2 + x3 + x5 = 31
  c9: x0 + x4 + x5 + x6 = 38

Bounds
  x0 >= 0
  x1 >= 0
  x2 >= 0
  x3 >= 0
  x4 >= 0
  x5 >= 0
  x6 >= 0
  x7 >= 0

Generals
  x0 x1 x2 x3 x4 x5 x6 x7

End
